GLPSOL--GLPK LP/MIP Solver 5.0
Parameter(s) specified in the command line:
 --lp ../modeles/5_379.lp --log 5_379.log
Reading problem data from '../modeles/5_379.lp'...
1916 rows, 3800 columns, 13290 non-zeros
1895 integer variables, all of which are binary
5727 lines were read
GLPK Integer Optimizer 5.0
1916 rows, 3800 columns, 13290 non-zeros
1895 integer variables, all of which are binary
Preprocessing...
1870 constraint coefficient(s) were reduced
1916 rows, 3795 columns, 13285 non-zeros
1895 integer variables, all of which are binary
Scaling...
 A: min|aij| =  2.785e-05  max|aij| =  4.000e+00  ratio =  1.436e+05
GM: min|aij| =  5.137e-02  max|aij| =  1.947e+01  ratio =  3.790e+02
EQ: min|aij| =  2.639e-03  max|aij| =  1.000e+00  ratio =  3.790e+02
2N: min|aij| =  1.782e-03  max|aij| =  1.768e+00  ratio =  9.923e+02
Constructing initial basis...
Size of triangular part is 1916
Solving LP relaxation...
GLPK Simplex Optimizer 5.0
1916 rows, 3795 columns, 13285 non-zeros
      0: obj =   1.000000000e+01 inf =   2.450e+01 (11)
    104: obj =   4.999338624e-01 inf =   0.000e+00 (0)
*   351: obj =  -2.235998555e+00 inf =   1.321e-15 (0)
OPTIMAL LP SOLUTION FOUND
Integer optimization begins...
Long-step dual simplex will be used
+   351: mip =     not found yet >=              -inf        (1; 0)
+   568: >>>>>  -2.235998555e+00 >=  -2.235998555e+00 < 0.1% (217; 0)
+   568: mip =  -2.235998555e+00 >=     tree is empty   0.0% (0; 433)
INTEGER OPTIMAL SOLUTION FOUND
Time used:   0.7 secs
Memory used: 5.6 Mb (5859133 bytes)
